% File represents an instance of a Composite Structure problem to be solved by a CP framework
% Created on 2025-03-26 10:41:42.850
T = 58;
n = 25;
m = 40;
edges = [(2, 1),
(7, 6),
(12, 11),
(17, 16),
(22, 21),
(2, 3),
(8, 7),
(13, 12),
(18, 17),
(23, 22),
(4, 3),
(8, 9),
(14, 13),
(18, 19),
(23, 24),
(4, 5),
(10, 9),
(15, 14),
(20, 19),
(25, 24),
(1, 6),
(6, 11),
(16, 11),
(21, 16),
(2, 7),
(7, 12),
(17, 12),
(22, 17),
(8, 3),
(8, 13),
(18, 13),
(23, 18),
(4, 9),
(9, 14),
(14, 19),
(24, 19),
(10, 5),
(15, 10),
(15, 20),
(25, 20)];
counts = [|10, 20, 10, 12,
|12, 22, 12, 12,
|12, 22, 12, 8,
|12, 22, 12, 10,
|12, 20, 12, 6,
|10, 20, 10, 6,
|12, 22, 12, 6,
|12, 22, 12, 10,
|12, 22, 12, 8,
|12, 24, 12, 8,
|10, 18, 10, 2,
|12, 20, 12, 2,
|12, 20, 12, 6,
|12, 22, 12, 6,
|12, 26, 12, 8,
|12, 18, 12, 2,
|12, 24, 12, 2,
|12, 24, 12, 6,
|12, 22, 12, 4,
|12, 24, 12, 4,
|12, 22, 12, 4,
|12, 24, 12, 6,
|12, 24, 12, 10,
|12, 22, 12, 8,
|12, 26, 12, 8|];
